100
100
435 9
250 1
795 15
758 13
285 15
277 9
354 13
566 1
476 16
52 8
558 19
629 25
83 7
380 3
734 2
259 18
912 8
970 7
847 3
596 8
519 23
366 24
937 8
776 12
101 4
997 8
172 25
357 7
658 13
359 16
592 17
911 3
476 5
561 23
959 9
157 4
381 23
52 19
157 3
80 7
358 1
914 5
52 23
136 12
62 21
452 5
462 14
860 12
594 20
611 4
928 20
733 10
642 11
680 25
315 10
407 23
187 20
202 16
294 14
652 6
534 5
360 22
169 19
635 14
991 23
17 20
717 1
282 10
237 11
859 3
72 15
575 11
937 3
201 5
816 4
937 1
658 24
399 3
219 9
291 9
983 10
831 24
112 12
760 25
72 18
603 19
235 4
754 23
657 6
104 24
509 18
877 18
41 25
696 9
660 13
468 17
349 23
692 13
761 3
512 7
